% Use this editor as a MiniZinc scratch book
%d=[1,2,3];
n=3;
Arch_size=1;
p=3;
m=2;

alpha=[3];  
beta=[1,1,1];
gamma=[1,1,3];
WCEC=[|1000000,
      |2000000,
      |3000000|];
mode=[2];  % mode1=highPerformance   mode2=lowPower

      
